p cnf 348 921
c 4 predicted_sum(18)
c 5 digitR(9)
c 6 digitL(9)
c 7 predicted_sum(17)
c 8 digitL(8)
c 9 digitR(8)
c 10 predicted_sum(16)
c 11 digitR(7)
c 12 digitL(7)
c 13 predicted_sum(15)
c 14 digitL(6)
c 15 digitR(6)
c 16 predicted_sum(14)
c 17 digitR(5)
c 18 digitL(5)
c 19 predicted_sum(13)
c 20 digitL(4)
c 21 digitR(4)
c 22 predicted_sum(12)
c 23 digitR(3)
c 24 digitL(3)
c 25 predicted_sum(11)
c 26 digitL(2)
c 27 digitR(2)
c 28 predicted_sum(10)
c 29 digitR(1)
c 30 digitL(1)
c 31 predicted_sum(9)
c 32 digitR(0)
c 33 digitL(0)
c 34 predicted_sum(8)
c 35 predicted_sum(7)
c 36 predicted_sum(6)
c 37 predicted_sum(5)
c 38 predicted_sum(4)
c 39 predicted_sum(3)
c 40 predicted_sum(2)
c 41 predicted_sum(1)
c 42 predicted_sum(0)
92 45 0
93 48 0
92 2 0
-92 -2 0
2 0
93 3 0
-93 -3 0
3 0
4 95 96 0
-4 -95 0
-4 -96 0
95 5 0
-95 -5 0
5 139 59 0
-5 -139 0
-5 -59 0
96 6 0
-96 -6 0
6 160 80 0
-6 -160 0
-6 -80 0
180 95 98 0
-180 -95 0
-180 -98 0
181 99 96 0
-181 -99 0
-181 -96 0
98 8 0
-98 -8 0
8 160 79 0
-8 -160 0
-8 -79 0
99 9 0
-99 -9 0
9 139 58 0
-9 -139 0
-9 -58 0
182 99 98 0
-182 -99 0
-182 -98 0
183 101 96 0
-183 -101 0
-183 -96 0
184 95 102 0
-184 -95 0
-184 -102 0
101 11 0
-101 -11 0
11 139 57 0
-11 -139 0
-11 -57 0
102 12 0
-102 -12 0
12 160 78 0
-12 -160 0
-12 -78 0
185 95 104 0
-185 -95 0
-185 -104 0
186 99 102 0
-186 -99 0
-186 -102 0
187 101 98 0
-187 -101 0
-187 -98 0
188 105 96 0
-188 -105 0
-188 -96 0
104 14 0
-104 -14 0
14 160 77 0
-14 -160 0
-14 -77 0
105 15 0
-105 -15 0
15 139 56 0
-15 -139 0
-15 -56 0
189 105 98 0
-189 -105 0
-189 -98 0
190 107 96 0
-190 -107 0
-190 -96 0
191 95 108 0
-191 -95 0
-191 -108 0
192 101 102 0
-192 -101 0
-192 -102 0
193 99 104 0
-193 -99 0
-193 -104 0
107 17 0
-107 -17 0
17 139 55 0
-17 -139 0
-17 -55 0
108 18 0
-108 -18 0
18 160 76 0
-18 -160 0
-18 -76 0
194 95 110 0
-194 -95 0
-194 -110 0
195 99 108 0
-195 -99 0
-195 -108 0
196 105 102 0
-196 -105 0
-196 -102 0
197 111 96 0
-197 -111 0
-197 -96 0
198 107 98 0
-198 -107 0
-198 -98 0
199 101 104 0
-199 -101 0
-199 -104 0
110 20 0
-110 -20 0
20 160 75 0
-20 -160 0
-20 -75 0
111 21 0
-111 -21 0
21 139 54 0
-21 -139 0
-21 -54 0
200 111 98 0
-200 -111 0
-200 -98 0
201 101 108 0
-201 -101 0
-201 -108 0
202 113 96 0
-202 -113 0
-202 -96 0
203 107 102 0
-203 -107 0
-203 -102 0
204 105 104 0
-204 -105 0
-204 -104 0
205 99 110 0
-205 -99 0
-205 -110 0
206 95 114 0
-206 -95 0
-206 -114 0
113 23 0
-113 -23 0
23 139 53 0
-23 -139 0
-23 -53 0
114 24 0
-114 -24 0
24 160 74 0
-24 -160 0
-24 -74 0
207 107 104 0
-207 -107 0
-207 -104 0
208 95 116 0
-208 -95 0
-208 -116 0
209 105 108 0
-209 -105 0
-209 -108 0
210 101 110 0
-210 -101 0
-210 -110 0
211 117 96 0
-211 -117 0
-211 -96 0
212 111 102 0
-212 -111 0
-212 -102 0
213 99 114 0
-213 -99 0
-213 -114 0
214 113 98 0
-214 -113 0
-214 -98 0
116 26 0
-116 -26 0
26 160 73 0
-26 -160 0
-26 -73 0
117 27 0
-117 -27 0
27 139 52 0
-27 -139 0
-27 -52 0
215 107 108 0
-215 -107 0
-215 -108 0
216 99 116 0
-216 -99 0
-216 -116 0
217 101 114 0
-217 -101 0
-217 -114 0
218 105 110 0
-218 -105 0
-218 -110 0
219 113 102 0
-219 -113 0
-219 -102 0
220 117 98 0
-220 -117 0
-220 -98 0
221 119 96 0
-221 -119 0
-221 -96 0
222 111 104 0
-222 -111 0
-222 -104 0
223 95 120 0
-223 -95 0
-223 -120 0
119 29 0
-119 -29 0
29 139 51 0
-29 -139 0
-29 -51 0
120 30 0
-120 -30 0
30 160 72 0
-30 -160 0
-30 -72 0
224 111 108 0
-224 -111 0
-224 -108 0
225 101 116 0
-225 -101 0
-225 -116 0
226 117 102 0
-226 -117 0
-226 -102 0
227 122 96 0
-227 -122 0
-227 -96 0
228 105 114 0
-228 -105 0
-228 -114 0
229 95 123 0
-229 -95 0
-229 -123 0
230 99 120 0
-230 -99 0
-230 -120 0
231 113 104 0
-231 -113 0
-231 -104 0
232 119 98 0
-232 -119 0
-232 -98 0
233 107 110 0
-233 -107 0
-233 -110 0
122 32 0
-122 -32 0
32 139 50 0
-32 -139 0
-32 -50 0
123 33 0
-123 -33 0
33 160 71 0
-33 -160 0
-33 -71 0
234 105 114 0
-234 -105 0
-234 -114 0
235 99 123 0
-235 -99 0
-235 -123 0
236 111 110 0
-236 -111 0
-236 -110 0
237 119 102 0
-237 -119 0
-237 -102 0
238 122 98 0
-238 -122 0
-238 -98 0
239 117 104 0
-239 -117 0
-239 -104 0
240 105 116 0
-240 -105 0
-240 -116 0
241 107 114 0
-241 -107 0
-241 -114 0
242 101 120 0
-242 -101 0
-242 -120 0
243 113 108 0
-243 -113 0
-243 -108 0
244 111 114 0
-244 -111 0
-244 -114 0
245 117 108 0
-245 -117 0
-245 -108 0
246 119 104 0
-246 -119 0
-246 -104 0
247 122 102 0
-247 -122 0
-247 -102 0
248 107 116 0
-248 -107 0
-248 -116 0
249 105 120 0
-249 -105 0
-249 -120 0
250 113 110 0
-250 -113 0
-250 -110 0
251 101 123 0
-251 -101 0
-251 -123 0
252 122 104 0
-252 -122 0
-252 -104 0
253 113 114 0
-253 -113 0
-253 -114 0
254 107 120 0
-254 -107 0
-254 -120 0
255 117 110 0
-255 -117 0
-255 -110 0
256 105 123 0
-256 -105 0
-256 -123 0
257 119 108 0
-257 -119 0
-257 -108 0
258 111 116 0
-258 -111 0
-258 -116 0
259 122 108 0
-259 -122 0
-259 -108 0
260 113 116 0
-260 -113 0
-260 -116 0
261 107 123 0
-261 -107 0
-261 -123 0
262 119 110 0
-262 -119 0
-262 -110 0
263 117 114 0
-263 -117 0
-263 -114 0
264 111 120 0
-264 -111 0
-264 -120 0
265 111 123 0
-265 -111 0
-265 -123 0
266 117 116 0
-266 -117 0
-266 -116 0
267 113 120 0
-267 -113 0
-267 -120 0
268 122 110 0
-268 -122 0
-268 -110 0
269 119 114 0
-269 -119 0
-269 -114 0
270 113 123 0
-270 -113 0
-270 -123 0
271 119 116 0
-271 -119 0
-271 -116 0
272 122 114 0
-272 -122 0
-272 -114 0
273 117 120 0
-273 -117 0
-273 -120 0
274 122 116 0
-274 -122 0
-274 -116 0
275 119 120 0
-275 -119 0
-275 -120 0
276 117 123 0
-276 -117 0
-276 -123 0
277 122 120 0
-277 -122 0
-277 -120 0
278 119 123 0
-278 -119 0
-278 -123 0
42 122 123 0
-42 -122 0
-42 -123 0
133 43 0
-133 -43 0
279 122 0
-279 -122 0
280 119 0
-280 -119 0
281 117 0
-281 -117 0
282 113 0
-282 -113 0
283 111 0
-283 -111 0
284 107 0
-284 -107 0
285 105 0
-285 -105 0
286 101 0
-286 -101 0
287 99 0
-287 -99 0
288 95 0
-288 -95 0
289 150 119 0
-289 -150 0
-289 -119 0
290 151 117 0
-290 -151 0
-290 -117 0
291 152 113 0
-291 -152 0
-291 -113 0
292 153 111 0
-292 -153 0
-292 -111 0
293 154 107 0
-293 -154 0
-293 -107 0
294 155 105 0
-294 -155 0
-294 -105 0
295 156 101 0
-295 -156 0
-295 -101 0
296 157 99 0
-296 -157 0
-296 -99 0
297 158 95 0
-297 -158 0
-297 -95 0
45 133 44 0
-45 -133 0
-45 -44 0
136 46 0
-136 -46 0
298 123 0
-298 -123 0
299 120 0
-299 -120 0
300 116 0
-300 -116 0
301 114 0
-301 -114 0
302 110 0
-302 -110 0
303 108 0
-303 -108 0
304 104 0
-304 -104 0
305 102 0
-305 -102 0
306 98 0
-306 -98 0
307 96 0
-307 -96 0
308 171 120 0
-308 -171 0
-308 -120 0
309 172 116 0
-309 -172 0
-309 -116 0
310 173 114 0
-310 -173 0
-310 -114 0
311 174 110 0
-311 -174 0
-311 -110 0
312 175 108 0
-312 -175 0
-312 -108 0
313 176 104 0
-313 -176 0
-313 -104 0
314 177 102 0
-314 -177 0
-314 -102 0
315 178 98 0
-315 -178 0
-315 -98 0
316 179 96 0
-316 -179 0
-316 -96 0
48 136 47 0
-48 -136 0
-48 -47 0
139 49 0
-139 -49 0
49 92 0
-49 -92 0
50 32 0
-50 -32 0
51 29 0
-51 -29 0
52 27 0
-52 -27 0
53 23 0
-53 -23 0
54 21 0
-54 -21 0
55 17 0
-55 -17 0
56 15 0
-56 -15 0
57 11 0
-57 -11 0
58 9 0
-58 -9 0
59 5 0
-59 -5 0
150 60 0
-150 -60 0
60 122 0
-60 -122 0
151 61 0
-151 -61 0
317 150 0
-317 -150 0
318 119 0
-318 -119 0
152 62 0
-152 -62 0
319 151 0
-319 -151 0
320 117 0
-320 -117 0
153 63 0
-153 -63 0
321 152 0
-321 -152 0
322 113 0
-322 -113 0
154 64 0
-154 -64 0
323 153 0
-323 -153 0
324 111 0
-324 -111 0
155 65 0
-155 -65 0
325 154 0
-325 -154 0
326 107 0
-326 -107 0
156 66 0
-156 -66 0
327 155 0
-327 -155 0
328 105 0
-328 -105 0
157 67 0
-157 -67 0
329 156 0
-329 -156 0
330 101 0
-330 -101 0
158 68 0
-158 -68 0
331 157 0
-331 -157 0
332 99 0
-332 -99 0
160 70 0
-160 -70 0
70 93 0
-70 -93 0
71 33 0
-71 -33 0
72 30 0
-72 -30 0
73 26 0
-73 -26 0
74 24 0
-74 -24 0
75 20 0
-75 -20 0
76 18 0
-76 -18 0
77 14 0
-77 -14 0
78 12 0
-78 -12 0
79 8 0
-79 -8 0
80 6 0
-80 -6 0
171 81 0
-171 -81 0
81 123 0
-81 -123 0
172 82 0
-172 -82 0
333 171 0
-333 -171 0
334 120 0
-334 -120 0
173 83 0
-173 -83 0
335 172 0
-335 -172 0
336 116 0
-336 -116 0
174 84 0
-174 -84 0
337 173 0
-337 -173 0
338 114 0
-338 -114 0
175 85 0
-175 -85 0
339 174 0
-339 -174 0
340 110 0
-340 -110 0
176 86 0
-176 -86 0
341 175 0
-341 -175 0
342 108 0
-342 -108 0
177 87 0
-177 -87 0
343 176 0
-343 -176 0
344 104 0
-344 -104 0
178 88 0
-178 -88 0
345 177 0
-345 -177 0
346 102 0
-346 -102 0
179 89 0
-179 -89 0
347 178 0
-347 -178 0
348 98 0
-348 -98 0
-1 0
-7 180 181 0
7 -180 0
7 -181 0
-10 182 183 184 0
10 -182 0
10 -183 0
10 -184 0
-13 185 186 187 188 0
13 -185 0
13 -186 0
13 -187 0
13 -188 0
-16 189 190 191 192 193 0
16 -189 0
16 -190 0
16 -191 0
16 -192 0
16 -193 0
-19 194 195 196 197 198 199 0
19 -194 0
19 -195 0
19 -196 0
19 -197 0
19 -198 0
19 -199 0
-22 200 201 202 203 204 205 206 0
22 -200 0
22 -201 0
22 -202 0
22 -203 0
22 -204 0
22 -205 0
22 -206 0
-25 207 208 209 210 211 212 213 214 0
25 -207 0
25 -208 0
25 -209 0
25 -210 0
25 -211 0
25 -212 0
25 -213 0
25 -214 0
-28 215 216 217 218 219 220 221 222 223 0
28 -215 0
28 -216 0
28 -217 0
28 -218 0
28 -219 0
28 -220 0
28 -221 0
28 -222 0
28 -223 0
-31 224 225 226 227 228 229 230 231 232 233 0
31 -224 0
31 -225 0
31 -226 0
31 -227 0
31 -228 0
31 -229 0
31 -230 0
31 -231 0
31 -232 0
31 -233 0
-34 234 235 236 237 238 239 240 241 242 243 0
34 -234 0
34 -235 0
34 -236 0
34 -237 0
34 -238 0
34 -239 0
34 -240 0
34 -241 0
34 -242 0
34 -243 0
-35 244 245 246 247 248 249 250 251 0
35 -244 0
35 -245 0
35 -246 0
35 -247 0
35 -248 0
35 -249 0
35 -250 0
35 -251 0
-36 252 253 254 255 256 257 258 0
36 -252 0
36 -253 0
36 -254 0
36 -255 0
36 -256 0
36 -257 0
36 -258 0
-37 259 260 261 262 263 264 0
37 -259 0
37 -260 0
37 -261 0
37 -262 0
37 -263 0
37 -264 0
-38 265 266 267 268 269 0
38 -265 0
38 -266 0
38 -267 0
38 -268 0
38 -269 0
-39 270 271 272 273 0
39 -270 0
39 -271 0
39 -272 0
39 -273 0
-40 274 275 276 0
40 -274 0
40 -275 0
40 -276 0
-41 277 278 0
41 -277 0
41 -278 0
-43 279 280 281 282 283 284 285 286 287 288 0
43 -279 0
43 -280 0
43 -281 0
43 -282 0
43 -283 0
43 -284 0
43 -285 0
43 -286 0
43 -287 0
43 -288 0
-44 289 290 291 292 293 294 295 296 297 0
44 -289 0
44 -290 0
44 -291 0
44 -292 0
44 -293 0
44 -294 0
44 -295 0
44 -296 0
44 -297 0
-46 298 299 300 301 302 303 304 305 306 307 0
46 -298 0
46 -299 0
46 -300 0
46 -301 0
46 -302 0
46 -303 0
46 -304 0
46 -305 0
46 -306 0
46 -307 0
-47 308 309 310 311 312 313 314 315 316 0
47 -308 0
47 -309 0
47 -310 0
47 -311 0
47 -312 0
47 -313 0
47 -314 0
47 -315 0
47 -316 0
-61 317 318 0
61 -317 0
61 -318 0
-62 319 320 0
62 -319 0
62 -320 0
-63 321 322 0
63 -321 0
63 -322 0
-64 323 324 0
64 -323 0
64 -324 0
-65 325 326 0
65 -325 0
65 -326 0
-66 327 328 0
66 -327 0
66 -328 0
-67 329 330 0
67 -329 0
67 -330 0
-68 331 332 0
68 -331 0
68 -332 0
-69 0
-82 333 334 0
82 -333 0
82 -334 0
-83 335 336 0
83 -335 0
83 -336 0
-84 337 338 0
84 -337 0
84 -338 0
-85 339 340 0
85 -339 0
85 -340 0
-86 341 342 0
86 -341 0
86 -342 0
-87 343 344 0
87 -343 0
87 -344 0
-88 345 346 0
88 -345 0
88 -346 0
-89 347 348 0
89 -347 0
89 -348 0
-90 0
-91 0
-94 0
-97 0
-100 0
-103 0
-106 0
-109 0
-112 0
-115 0
-118 0
-121 0
-124 0
-125 0
-126 0
-127 0
-128 0
-129 0
-130 0
-131 0
-132 0
-134 0
-135 0
-137 0
-138 0
-140 0
-141 0
-142 0
-143 0
-144 0
-145 0
-146 0
-147 0
-148 0
-149 0
-159 0
-161 0
-162 0
-163 0
-164 0
-165 0
-166 0
-167 0
-168 0
-169 0
-170 0
