p cnf 790 3827
c 7 monster_action(up,0)
c 8 monster_action(down,0)
c 9 monster_action(left,0)
c 10 monster_action(right,0)
c 12 action(up,0)
c 13 action(down,0)
c 14 action(left,0)
c 15 action(right,0)
c 66 agent(6,5,0)
c 67 agent(5,5,1)
c 68 agent(5,5,0)
c 69 agent(4,5,1)
c 70 agent(6,4,0)
c 71 agent(5,4,1)
c 72 agent(5,4,0)
c 73 agent(4,4,1)
c 74 agent(6,3,0)
c 75 agent(5,3,1)
c 76 agent(5,3,0)
c 77 agent(4,3,1)
c 78 agent(6,2,0)
c 79 agent(5,2,1)
c 80 agent(5,2,0)
c 81 agent(4,2,1)
c 82 agent(6,1,0)
c 83 agent(5,1,1)
c 84 agent(5,1,0)
c 85 agent(4,1,1)
c 86 agent(0,5,0)
c 87 agent(1,5,1)
c 88 agent(0,4,0)
c 89 agent(1,4,1)
c 90 agent(0,3,0)
c 91 agent(1,3,1)
c 92 agent(0,2,0)
c 93 agent(1,2,1)
c 94 agent(0,1,0)
c 95 agent(1,1,1)
c 96 agent(5,6,0)
c 97 agent(4,6,0)
c 98 agent(3,6,0)
c 99 agent(3,5,1)
c 100 agent(2,6,0)
c 101 agent(2,5,1)
c 102 agent(1,6,0)
c 103 agent(4,5,0)
c 104 agent(3,5,0)
c 105 agent(3,4,1)
c 106 agent(2,5,0)
c 107 agent(2,4,1)
c 108 agent(1,5,0)
c 109 agent(5,0,0)
c 110 agent(4,0,0)
c 111 agent(3,0,0)
c 112 agent(3,1,1)
c 113 agent(2,0,0)
c 114 agent(2,1,1)
c 115 agent(1,0,0)
c 116 agent(1,1,0)
c 117 agent(2,1,0)
c 118 agent(3,1,0)
c 119 agent(4,1,0)
c 120 agent(1,2,0)
c 121 agent(2,2,0)
c 122 agent(3,2,0)
c 123 agent(4,2,0)
c 124 agent(1,3,0)
c 125 agent(2,3,0)
c 126 agent(3,3,0)
c 127 agent(4,3,0)
c 128 agent(1,4,0)
c 129 agent(2,4,0)
c 130 agent(3,4,0)
c 131 agent(4,4,0)
c 132 agent(2,2,1)
c 133 agent(3,2,1)
c 134 agent(2,3,1)
c 135 agent(3,3,1)
c 186 monster(6,5,0)
c 187 monster(5,5,1)
c 188 monster(5,5,0)
c 189 monster(4,5,1)
c 190 monster(6,4,0)
c 191 monster(5,4,1)
c 192 monster(5,4,0)
c 193 monster(4,4,1)
c 194 monster(6,3,0)
c 195 monster(5,3,1)
c 196 monster(5,3,0)
c 197 monster(4,3,1)
c 198 monster(6,2,0)
c 199 monster(5,2,1)
c 200 monster(5,2,0)
c 201 monster(4,2,1)
c 202 monster(6,1,0)
c 203 monster(5,1,1)
c 204 monster(5,1,0)
c 205 monster(4,1,1)
c 206 monster(4,5,0)
c 207 monster(3,5,0)
c 208 monster(2,5,0)
c 209 monster(3,5,1)
c 210 monster(4,4,0)
c 211 monster(3,4,0)
c 212 monster(2,4,0)
c 213 monster(3,4,1)
c 214 monster(4,3,0)
c 215 monster(3,3,0)
c 216 monster(2,3,0)
c 217 monster(3,3,1)
c 218 monster(4,2,0)
c 219 monster(3,2,0)
c 220 monster(2,2,0)
c 221 monster(3,2,1)
c 222 monster(4,1,0)
c 223 monster(3,1,0)
c 224 monster(2,1,0)
c 225 monster(3,1,1)
c 226 monster(5,6,0)
c 227 monster(4,6,0)
c 228 monster(3,6,0)
c 229 monster(2,6,0)
c 230 monster(2,5,1)
c 231 monster(1,6,0)
c 232 monster(1,5,1)
c 233 monster(2,4,1)
c 234 monster(1,5,0)
c 235 monster(1,4,1)
c 236 monster(5,0,0)
c 237 monster(4,0,0)
c 238 monster(3,0,0)
c 239 monster(2,0,0)
c 240 monster(2,1,1)
c 241 monster(1,0,0)
c 242 monster(1,1,1)
c 243 hit(0)
c 244 monster(1,1,0)
c 245 monster(1,2,0)
c 246 monster(1,3,0)
c 247 monster(1,4,0)
c 248 hit(1)
c 249 monster(1,2,1)
c 250 monster(2,2,1)
c 251 monster(1,3,1)
c 252 monster(2,3,1)
c 259 action(up)
c 260 action(down)
c 261 action(left)
c 262 action(right)
379 380 0
379 381 0
379 382 0
380 379 0
380 381 0
380 382 0
381 379 0
381 380 0
381 382 0
382 379 0
382 380 0
382 381 0
384 385 0
384 386 0
384 387 0
385 384 0
385 386 0
385 387 0
386 384 0
386 385 0
386 387 0
387 384 0
387 385 0
387 386 0
438 460 0
438 462 0
438 464 0
438 466 0
438 468 0
438 469 0
438 470 0
438 472 0
438 474 0
438 481 0
438 482 0
438 483 0
438 485 0
438 487 0
438 488 0
438 489 0
438 490 0
438 491 0
438 456 0
438 492 0
438 493 0
438 494 0
438 495 0
438 452 0
438 496 0
438 497 0
438 498 0
438 499 0
438 448 0
438 500 0
438 501 0
438 502 0
438 503 0
438 444 0
442 458 0
442 462 0
442 464 0
442 466 0
442 468 0
442 469 0
442 470 0
442 472 0
442 474 0
442 481 0
442 482 0
442 483 0
442 485 0
442 487 0
442 488 0
442 489 0
442 490 0
442 491 0
442 456 0
442 492 0
442 493 0
442 494 0
442 495 0
442 452 0
442 496 0
442 497 0
442 498 0
442 499 0
442 448 0
442 480 0
442 478 0
442 476 0
442 475 0
442 440 0
446 458 0
446 460 0
446 464 0
446 466 0
446 468 0
446 469 0
446 470 0
446 472 0
446 474 0
446 481 0
446 482 0
446 483 0
446 485 0
446 487 0
446 488 0
446 489 0
446 490 0
446 491 0
446 456 0
446 492 0
446 493 0
446 494 0
446 495 0
446 452 0
446 500 0
446 501 0
446 502 0
446 503 0
446 444 0
446 480 0
446 478 0
446 476 0
446 475 0
446 440 0
450 458 0
450 460 0
450 462 0
450 466 0
450 468 0
450 469 0
450 470 0
450 472 0
450 474 0
450 481 0
450 482 0
450 483 0
450 485 0
450 487 0
450 488 0
450 489 0
450 490 0
450 491 0
450 456 0
450 496 0
450 497 0
450 498 0
450 499 0
450 448 0
450 500 0
450 501 0
450 502 0
450 503 0
450 444 0
450 480 0
450 478 0
450 476 0
450 475 0
450 440 0
454 458 0
454 460 0
454 462 0
454 464 0
454 468 0
454 469 0
454 470 0
454 472 0
454 474 0
454 481 0
454 482 0
454 483 0
454 485 0
454 487 0
454 492 0
454 493 0
454 494 0
454 495 0
454 452 0
454 496 0
454 497 0
454 498 0
454 499 0
454 448 0
454 500 0
454 501 0
454 502 0
454 503 0
454 444 0
454 480 0
454 478 0
454 476 0
454 475 0
454 440 0
458 442 0
458 446 0
458 450 0
458 454 0
458 468 0
458 469 0
458 470 0
458 472 0
458 474 0
458 481 0
458 482 0
458 483 0
458 485 0
458 487 0
458 488 0
458 489 0
458 490 0
458 491 0
458 456 0
458 492 0
458 493 0
458 494 0
458 495 0
458 452 0
458 496 0
458 497 0
458 498 0
458 499 0
458 448 0
458 500 0
458 501 0
458 502 0
458 503 0
458 444 0
460 438 0
460 446 0
460 450 0
460 454 0
460 468 0
460 469 0
460 470 0
460 472 0
460 474 0
460 481 0
460 482 0
460 483 0
460 485 0
460 487 0
460 488 0
460 489 0
460 490 0
460 491 0
460 456 0
460 492 0
460 493 0
460 494 0
460 495 0
460 452 0
460 496 0
460 497 0
460 498 0
460 499 0
460 448 0
460 480 0
460 478 0
460 476 0
460 475 0
460 440 0
462 438 0
462 442 0
462 450 0
462 454 0
462 468 0
462 469 0
462 470 0
462 472 0
462 474 0
462 481 0
462 482 0
462 483 0
462 485 0
462 487 0
462 488 0
462 489 0
462 490 0
462 491 0
462 456 0
462 492 0
462 493 0
462 494 0
462 495 0
462 452 0
462 500 0
462 501 0
462 502 0
462 503 0
462 444 0
462 480 0
462 478 0
462 476 0
462 475 0
462 440 0
464 438 0
464 442 0
464 446 0
464 454 0
464 468 0
464 469 0
464 470 0
464 472 0
464 474 0
464 481 0
464 482 0
464 483 0
464 485 0
464 487 0
464 488 0
464 489 0
464 490 0
464 491 0
464 456 0
464 496 0
464 497 0
464 498 0
464 499 0
464 448 0
464 500 0
464 501 0
464 502 0
464 503 0
464 444 0
464 480 0
464 478 0
464 476 0
464 475 0
464 440 0
466 438 0
466 442 0
466 446 0
466 450 0
466 468 0
466 469 0
466 470 0
466 472 0
466 474 0
466 481 0
466 482 0
466 483 0
466 485 0
466 487 0
466 492 0
466 493 0
466 494 0
466 495 0
466 452 0
466 496 0
466 497 0
466 498 0
466 499 0
466 448 0
466 500 0
466 501 0
466 502 0
466 503 0
466 444 0
466 480 0
466 478 0
466 476 0
466 475 0
466 440 0
468 438 0
468 442 0
468 446 0
468 450 0
468 454 0
468 458 0
468 460 0
468 462 0
468 464 0
468 466 0
468 482 0
468 483 0
468 485 0
468 487 0
468 488 0
468 489 0
468 490 0
468 491 0
468 492 0
468 493 0
468 494 0
468 495 0
468 496 0
468 497 0
468 498 0
468 499 0
468 500 0
468 501 0
468 502 0
468 503 0
468 480 0
468 478 0
468 476 0
468 475 0
469 438 0
469 442 0
469 446 0
469 450 0
469 454 0
469 458 0
469 460 0
469 462 0
469 464 0
469 466 0
469 481 0
469 483 0
469 485 0
469 487 0
469 488 0
469 489 0
469 490 0
469 456 0
469 492 0
469 493 0
469 494 0
469 452 0
469 496 0
469 497 0
469 498 0
469 448 0
469 500 0
469 501 0
469 502 0
469 444 0
469 480 0
469 478 0
469 476 0
469 440 0
470 438 0
470 442 0
470 446 0
470 450 0
470 454 0
470 458 0
470 460 0
470 462 0
470 464 0
470 466 0
470 481 0
470 482 0
470 485 0
470 487 0
470 488 0
470 489 0
470 491 0
470 456 0
470 492 0
470 493 0
470 495 0
470 452 0
470 496 0
470 497 0
470 499 0
470 448 0
470 500 0
470 501 0
470 503 0
470 444 0
470 480 0
470 478 0
470 475 0
470 440 0
472 438 0
472 442 0
472 446 0
472 450 0
472 454 0
472 458 0
472 460 0
472 462 0
472 464 0
472 466 0
472 481 0
472 482 0
472 483 0
472 487 0
472 488 0
472 490 0
472 491 0
472 456 0
472 492 0
472 494 0
472 495 0
472 452 0
472 496 0
472 498 0
472 499 0
472 448 0
472 500 0
472 502 0
472 503 0
472 444 0
472 480 0
472 476 0
472 475 0
472 440 0
474 438 0
474 442 0
474 446 0
474 450 0
474 454 0
474 458 0
474 460 0
474 462 0
474 464 0
474 466 0
474 481 0
474 482 0
474 483 0
474 485 0
474 489 0
474 490 0
474 491 0
474 456 0
474 493 0
474 494 0
474 495 0
474 452 0
474 497 0
474 498 0
474 499 0
474 448 0
474 501 0
474 502 0
474 503 0
474 444 0
474 478 0
474 476 0
474 475 0
474 440 0
481 438 0
481 442 0
481 446 0
481 450 0
481 454 0
481 458 0
481 460 0
481 462 0
481 464 0
481 466 0
481 469 0
481 470 0
481 472 0
481 474 0
481 488 0
481 489 0
481 490 0
481 491 0
481 492 0
481 493 0
481 494 0
481 495 0
481 496 0
481 497 0
481 498 0
481 499 0
481 500 0
481 501 0
481 502 0
481 503 0
481 480 0
481 478 0
481 476 0
481 475 0
482 438 0
482 442 0
482 446 0
482 450 0
482 454 0
482 458 0
482 460 0
482 462 0
482 464 0
482 466 0
482 468 0
482 470 0
482 472 0
482 474 0
482 488 0
482 489 0
482 490 0
482 456 0
482 492 0
482 493 0
482 494 0
482 452 0
482 496 0
482 497 0
482 498 0
482 448 0
482 500 0
482 501 0
482 502 0
482 444 0
482 480 0
482 478 0
482 476 0
482 440 0
483 438 0
483 442 0
483 446 0
483 450 0
483 454 0
483 458 0
483 460 0
483 462 0
483 464 0
483 466 0
483 468 0
483 469 0
483 472 0
483 474 0
483 488 0
483 489 0
483 491 0
483 456 0
483 492 0
483 493 0
483 495 0
483 452 0
483 496 0
483 497 0
483 499 0
483 448 0
483 500 0
483 501 0
483 503 0
483 444 0
483 480 0
483 478 0
483 475 0
483 440 0
485 438 0
485 442 0
485 446 0
485 450 0
485 454 0
485 458 0
485 460 0
485 462 0
485 464 0
485 466 0
485 468 0
485 469 0
485 470 0
485 474 0
485 488 0
485 490 0
485 491 0
485 456 0
485 492 0
485 494 0
485 495 0
485 452 0
485 496 0
485 498 0
485 499 0
485 448 0
485 500 0
485 502 0
485 503 0
485 444 0
485 480 0
485 476 0
485 475 0
485 440 0
487 438 0
487 442 0
487 446 0
487 450 0
487 454 0
487 458 0
487 460 0
487 462 0
487 464 0
487 466 0
487 468 0
487 469 0
487 470 0
487 472 0
487 489 0
487 490 0
487 491 0
487 456 0
487 493 0
487 494 0
487 495 0
487 452 0
487 497 0
487 498 0
487 499 0
487 448 0
487 501 0
487 502 0
487 503 0
487 444 0
487 478 0
487 476 0
487 475 0
487 440 0
488 438 0
488 442 0
488 446 0
488 450 0
488 458 0
488 460 0
488 462 0
488 464 0
488 468 0
488 469 0
488 470 0
488 472 0
488 481 0
488 482 0
488 483 0
488 485 0
488 493 0
488 494 0
488 495 0
488 452 0
488 497 0
488 498 0
488 499 0
488 448 0
488 501 0
488 502 0
488 503 0
488 444 0
488 478 0
488 476 0
488 475 0
488 440 0
489 438 0
489 442 0
489 446 0
489 450 0
489 458 0
489 460 0
489 462 0
489 464 0
489 468 0
489 469 0
489 470 0
489 474 0
489 481 0
489 482 0
489 483 0
489 487 0
489 492 0
489 494 0
489 495 0
489 452 0
489 496 0
489 498 0
489 499 0
489 448 0
489 500 0
489 502 0
489 503 0
489 444 0
489 480 0
489 476 0
489 475 0
489 440 0
490 438 0
490 442 0
490 446 0
490 450 0
490 458 0
490 460 0
490 462 0
490 464 0
490 468 0
490 469 0
490 472 0
490 474 0
490 481 0
490 482 0
490 485 0
490 487 0
490 492 0
490 493 0
490 495 0
490 452 0
490 496 0
490 497 0
490 499 0
490 448 0
490 500 0
490 501 0
490 503 0
490 444 0
490 480 0
490 478 0
490 475 0
490 440 0
491 438 0
491 442 0
491 446 0
491 450 0
491 458 0
491 460 0
491 462 0
491 464 0
491 468 0
491 470 0
491 472 0
491 474 0
491 481 0
491 483 0
491 485 0
491 487 0
491 492 0
491 493 0
491 494 0
491 452 0
491 496 0
491 497 0
491 498 0
491 448 0
491 500 0
491 501 0
491 502 0
491 444 0
491 480 0
491 478 0
491 476 0
491 440 0
456 438 0
456 442 0
456 446 0
456 450 0
456 458 0
456 460 0
456 462 0
456 464 0
456 469 0
456 470 0
456 472 0
456 474 0
456 482 0
456 483 0
456 485 0
456 487 0
456 492 0
456 493 0
456 494 0
456 495 0
456 496 0
456 497 0
456 498 0
456 499 0
456 500 0
456 501 0
456 502 0
456 503 0
456 480 0
456 478 0
456 476 0
456 475 0
492 438 0
492 442 0
492 446 0
492 454 0
492 458 0
492 460 0
492 462 0
492 466 0
492 468 0
492 469 0
492 470 0
492 472 0
492 481 0
492 482 0
492 483 0
492 485 0
492 489 0
492 490 0
492 491 0
492 456 0
492 497 0
492 498 0
492 499 0
492 448 0
492 501 0
492 502 0
492 503 0
492 444 0
492 478 0
492 476 0
492 475 0
492 440 0
493 438 0
493 442 0
493 446 0
493 454 0
493 458 0
493 460 0
493 462 0
493 466 0
493 468 0
493 469 0
493 470 0
493 474 0
493 481 0
493 482 0
493 483 0
493 487 0
493 488 0
493 490 0
493 491 0
493 456 0
493 496 0
493 498 0
493 499 0
493 448 0
493 500 0
493 502 0
493 503 0
493 444 0
493 480 0
493 476 0
493 475 0
493 440 0
494 438 0
494 442 0
494 446 0
494 454 0
494 458 0
494 460 0
494 462 0
494 466 0
494 468 0
494 469 0
494 472 0
494 474 0
494 481 0
494 482 0
494 485 0
494 487 0
494 488 0
494 489 0
494 491 0
494 456 0
494 496 0
494 497 0
494 499 0
494 448 0
494 500 0
494 501 0
494 503 0
494 444 0
494 480 0
494 478 0
494 475 0
494 440 0
495 438 0
495 442 0
495 446 0
495 454 0
495 458 0
495 460 0
495 462 0
495 466 0
495 468 0
495 470 0
495 472 0
495 474 0
495 481 0
495 483 0
495 485 0
495 487 0
495 488 0
495 489 0
495 490 0
495 456 0
495 496 0
495 497 0
495 498 0
495 448 0
495 500 0
495 501 0
495 502 0
495 444 0
495 480 0
495 478 0
495 476 0
495 440 0
452 438 0
452 442 0
452 446 0
452 454 0
452 458 0
452 460 0
452 462 0
452 466 0
452 469 0
452 470 0
452 472 0
452 474 0
452 482 0
452 483 0
452 485 0
452 487 0
452 488 0
452 489 0
452 490 0
452 491 0
452 496 0
452 497 0
452 498 0
452 499 0
452 500 0
452 501 0
452 502 0
452 503 0
452 480 0
452 478 0
452 476 0
452 475 0
496 438 0
496 442 0
496 450 0
496 454 0
496 458 0
496 460 0
496 464 0
496 466 0
496 468 0
496 469 0
496 470 0
496 472 0
496 481 0
496 482 0
496 483 0
496 485 0
496 489 0
496 490 0
496 491 0
496 456 0
496 493 0
496 494 0
496 495 0
496 452 0
496 501 0
496 502 0
496 503 0
496 444 0
496 478 0
496 476 0
496 475 0
496 440 0
497 438 0
497 442 0
497 450 0
497 454 0
497 458 0
497 460 0
497 464 0
497 466 0
497 468 0
497 469 0
497 470 0
497 474 0
497 481 0
497 482 0
497 483 0
497 487 0
497 488 0
497 490 0
497 491 0
497 456 0
497 492 0
497 494 0
497 495 0
497 452 0
497 500 0
497 502 0
497 503 0
497 444 0
497 480 0
497 476 0
497 475 0
497 440 0
498 438 0
498 442 0
498 450 0
498 454 0
498 458 0
498 460 0
498 464 0
498 466 0
498 468 0
498 469 0
498 472 0
498 474 0
498 481 0
498 482 0
498 485 0
498 487 0
498 488 0
498 489 0
498 491 0
498 456 0
498 492 0
498 493 0
498 495 0
498 452 0
498 500 0
498 501 0
498 503 0
498 444 0
498 480 0
498 478 0
498 475 0
498 440 0
499 438 0
499 442 0
499 450 0
499 454 0
499 458 0
499 460 0
499 464 0
499 466 0
499 468 0
499 470 0
499 472 0
499 474 0
499 481 0
499 483 0
499 485 0
499 487 0
499 488 0
499 489 0
499 490 0
499 456 0
499 492 0
499 493 0
499 494 0
499 452 0
499 500 0
499 501 0
499 502 0
499 444 0
499 480 0
499 478 0
499 476 0
499 440 0
448 438 0
448 442 0
448 450 0
448 454 0
448 458 0
448 460 0
448 464 0
448 466 0
448 469 0
448 470 0
448 472 0
448 474 0
448 482 0
448 483 0
448 485 0
448 487 0
448 488 0
448 489 0
448 490 0
448 491 0
448 492 0
448 493 0
448 494 0
448 495 0
448 500 0
448 501 0
448 502 0
448 503 0
448 480 0
448 478 0
448 476 0
448 475 0
500 438 0
500 446 0
500 450 0
500 454 0
500 458 0
500 462 0
500 464 0
500 466 0
500 468 0
500 469 0
500 470 0
500 472 0
500 481 0
500 482 0
500 483 0
500 485 0
500 489 0
500 490 0
500 491 0
500 456 0
500 493 0
500 494 0
500 495 0
500 452 0
500 497 0
500 498 0
500 499 0
500 448 0
500 478 0
500 476 0
500 475 0
500 440 0
501 438 0
501 446 0
501 450 0
501 454 0
501 458 0
501 462 0
501 464 0
501 466 0
501 468 0
501 469 0
501 470 0
501 474 0
501 481 0
501 482 0
501 483 0
501 487 0
501 488 0
501 490 0
501 491 0
501 456 0
501 492 0
501 494 0
501 495 0
501 452 0
501 496 0
501 498 0
501 499 0
501 448 0
501 480 0
501 476 0
501 475 0
501 440 0
502 438 0
502 446 0
502 450 0
502 454 0
502 458 0
502 462 0
502 464 0
502 466 0
502 468 0
502 469 0
502 472 0
502 474 0
502 481 0
502 482 0
502 485 0
502 487 0
502 488 0
502 489 0
502 491 0
502 456 0
502 492 0
502 493 0
502 495 0
502 452 0
502 496 0
502 497 0
502 499 0
502 448 0
502 480 0
502 478 0
502 475 0
502 440 0
503 438 0
503 446 0
503 450 0
503 454 0
503 458 0
503 462 0
503 464 0
503 466 0
503 468 0
503 470 0
503 472 0
503 474 0
503 481 0
503 483 0
503 485 0
503 487 0
503 488 0
503 489 0
503 490 0
503 456 0
503 492 0
503 493 0
503 494 0
503 452 0
503 496 0
503 497 0
503 498 0
503 448 0
503 480 0
503 478 0
503 476 0
503 440 0
444 438 0
444 446 0
444 450 0
444 454 0
444 458 0
444 462 0
444 464 0
444 466 0
444 469 0
444 470 0
444 472 0
444 474 0
444 482 0
444 483 0
444 485 0
444 487 0
444 488 0
444 489 0
444 490 0
444 491 0
444 492 0
444 493 0
444 494 0
444 495 0
444 496 0
444 497 0
444 498 0
444 499 0
444 480 0
444 478 0
444 476 0
444 475 0
480 442 0
480 446 0
480 450 0
480 454 0
480 460 0
480 462 0
480 464 0
480 466 0
480 468 0
480 469 0
480 470 0
480 472 0
480 481 0
480 482 0
480 483 0
480 485 0
480 489 0
480 490 0
480 491 0
480 456 0
480 493 0
480 494 0
480 495 0
480 452 0
480 497 0
480 498 0
480 499 0
480 448 0
480 501 0
480 502 0
480 503 0
480 444 0
478 442 0
478 446 0
478 450 0
478 454 0
478 460 0
478 462 0
478 464 0
478 466 0
478 468 0
478 469 0
478 470 0
478 474 0
478 481 0
478 482 0
478 483 0
478 487 0
478 488 0
478 490 0
478 491 0
478 456 0
478 492 0
478 494 0
478 495 0
478 452 0
478 496 0
478 498 0
478 499 0
478 448 0
478 500 0
478 502 0
478 503 0
478 444 0
476 442 0
476 446 0
476 450 0
476 454 0
476 460 0
476 462 0
476 464 0
476 466 0
476 468 0
476 469 0
476 472 0
476 474 0
476 481 0
476 482 0
476 485 0
476 487 0
476 488 0
476 489 0
476 491 0
476 456 0
476 492 0
476 493 0
476 495 0
476 452 0
476 496 0
476 497 0
476 499 0
476 448 0
476 500 0
476 501 0
476 503 0
476 444 0
475 442 0
475 446 0
475 450 0
475 454 0
475 460 0
475 462 0
475 464 0
475 466 0
475 468 0
475 470 0
475 472 0
475 474 0
475 481 0
475 483 0
475 485 0
475 487 0
475 488 0
475 489 0
475 490 0
475 456 0
475 492 0
475 493 0
475 494 0
475 452 0
475 496 0
475 497 0
475 498 0
475 448 0
475 500 0
475 501 0
475 502 0
475 444 0
440 442 0
440 446 0
440 450 0
440 454 0
440 460 0
440 462 0
440 464 0
440 466 0
440 469 0
440 470 0
440 472 0
440 474 0
440 482 0
440 483 0
440 485 0
440 487 0
440 488 0
440 489 0
440 490 0
440 491 0
440 492 0
440 493 0
440 494 0
440 495 0
440 496 0
440 497 0
440 498 0
440 499 0
440 500 0
440 501 0
440 502 0
440 503 0
467 504 0
467 505 0
467 453 0
467 451 0
467 506 0
467 507 0
467 449 0
467 447 0
467 479 0
467 477 0
467 445 0
467 443 0
467 473 0
467 471 0
467 441 0
467 439 0
486 465 0
486 505 0
486 453 0
486 451 0
486 463 0
486 507 0
486 449 0
486 447 0
486 461 0
486 477 0
486 445 0
486 443 0
486 459 0
486 471 0
486 441 0
486 439 0
484 465 0
484 504 0
484 453 0
484 451 0
484 463 0
484 506 0
484 449 0
484 447 0
484 461 0
484 479 0
484 445 0
484 443 0
484 459 0
484 473 0
484 441 0
484 439 0
457 465 0
457 504 0
457 505 0
457 451 0
457 463 0
457 506 0
457 507 0
457 447 0
457 461 0
457 479 0
457 477 0
457 443 0
457 459 0
457 473 0
457 471 0
457 439 0
455 465 0
455 504 0
455 505 0
455 453 0
455 463 0
455 506 0
455 507 0
455 449 0
455 461 0
455 479 0
455 477 0
455 445 0
455 459 0
455 473 0
455 471 0
455 441 0
465 486 0
465 484 0
465 457 0
465 455 0
465 506 0
465 507 0
465 449 0
465 447 0
465 479 0
465 477 0
465 445 0
465 443 0
465 473 0
465 471 0
465 441 0
465 439 0
504 467 0
504 484 0
504 457 0
504 455 0
504 463 0
504 507 0
504 449 0
504 447 0
504 461 0
504 477 0
504 445 0
504 443 0
504 459 0
504 471 0
504 441 0
504 439 0
505 467 0
505 486 0
505 457 0
505 455 0
505 463 0
505 506 0
505 449 0
505 447 0
505 461 0
505 479 0
505 445 0
505 443 0
505 459 0
505 473 0
505 441 0
505 439 0
453 467 0
453 486 0
453 484 0
453 455 0
453 463 0
453 506 0
453 507 0
453 447 0
453 461 0
453 479 0
453 477 0
453 443 0
453 459 0
453 473 0
453 471 0
453 439 0
451 467 0
451 486 0
451 484 0
451 457 0
451 463 0
451 506 0
451 507 0
451 449 0
451 461 0
451 479 0
451 477 0
451 445 0
451 459 0
451 473 0
451 471 0
451 441 0
463 486 0
463 484 0
463 457 0
463 455 0
463 504 0
463 505 0
463 453 0
463 451 0
463 479 0
463 477 0
463 445 0
463 443 0
463 473 0
463 471 0
463 441 0
463 439 0
506 467 0
506 484 0
506 457 0
506 455 0
506 465 0
506 505 0
506 453 0
506 451 0
506 461 0
506 477 0
506 445 0
506 443 0
506 459 0
506 471 0
506 441 0
506 439 0
507 467 0
507 486 0
507 457 0
507 455 0
507 465 0
507 504 0
507 453 0
507 451 0
507 461 0
507 479 0
507 445 0
507 443 0
507 459 0
507 473 0
507 441 0
507 439 0
449 467 0
449 486 0
449 484 0
449 455 0
449 465 0
449 504 0
449 505 0
449 451 0
449 461 0
449 479 0
449 477 0
449 443 0
449 459 0
449 473 0
449 471 0
449 439 0
447 467 0
447 486 0
447 484 0
447 457 0
447 465 0
447 504 0
447 505 0
447 453 0
447 461 0
447 479 0
447 477 0
447 445 0
447 459 0
447 473 0
447 471 0
447 441 0
461 486 0
461 484 0
461 457 0
461 455 0
461 504 0
461 505 0
461 453 0
461 451 0
461 506 0
461 507 0
461 449 0
461 447 0
461 473 0
461 471 0
461 441 0
461 439 0
479 467 0
479 484 0
479 457 0
479 455 0
479 465 0
479 505 0
479 453 0
479 451 0
479 463 0
479 507 0
479 449 0
479 447 0
479 459 0
479 471 0
479 441 0
479 439 0
477 467 0
477 486 0
477 457 0
477 455 0
477 465 0
477 504 0
477 453 0
477 451 0
477 463 0
477 506 0
477 449 0
477 447 0
477 459 0
477 473 0
477 441 0
477 439 0
445 467 0
445 486 0
445 484 0
445 455 0
445 465 0
445 504 0
445 505 0
445 451 0
445 463 0
445 506 0
445 507 0
445 447 0
445 459 0
445 473 0
445 471 0
445 439 0
443 467 0
443 486 0
443 484 0
443 457 0
443 465 0
443 504 0
443 505 0
443 453 0
443 463 0
443 506 0
443 507 0
443 449 0
443 459 0
443 473 0
443 471 0
443 441 0
459 486 0
459 484 0
459 457 0
459 455 0
459 504 0
459 505 0
459 453 0
459 451 0
459 506 0
459 507 0
459 449 0
459 447 0
459 479 0
459 477 0
459 445 0
459 443 0
473 467 0
473 484 0
473 457 0
473 455 0
473 465 0
473 505 0
473 453 0
473 451 0
473 463 0
473 507 0
473 449 0
473 447 0
473 461 0
473 477 0
473 445 0
473 443 0
471 467 0
471 486 0
471 457 0
471 455 0
471 465 0
471 504 0
471 453 0
471 451 0
471 463 0
471 506 0
471 449 0
471 447 0
471 461 0
471 479 0
471 445 0
471 443 0
441 467 0
441 486 0
441 484 0
441 455 0
441 465 0
441 504 0
441 505 0
441 451 0
441 463 0
441 506 0
441 507 0
441 447 0
441 461 0
441 479 0
441 477 0
441 443 0
439 467 0
439 486 0
439 484 0
439 457 0
439 465 0
439 504 0
439 505 0
439 453 0
439 463 0
439 506 0
439 507 0
439 449 0
439 461 0
439 479 0
439 477 0
439 445 0
378 255 0
383 258 0
388 116 0
389 117 0
390 118 0
391 119 0
392 84 0
393 120 0
394 121 0
395 122 0
396 123 0
397 80 0
398 124 0
399 125 0
400 126 0
401 127 0
402 76 0
403 128 0
404 129 0
405 130 0
406 131 0
407 72 0
408 108 0
409 106 0
410 104 0
411 103 0
412 68 0
413 95 0
414 114 0
415 112 0
416 85 0
417 83 0
418 93 0
419 132 0
420 133 0
421 81 0
422 79 0
423 91 0
424 134 0
425 135 0
426 77 0
427 75 0
428 89 0
429 107 0
430 105 0
431 73 0
432 71 0
433 87 0
434 101 0
435 99 0
436 69 0
437 67 0
508 244 0
509 224 0
510 223 0
511 222 0
512 204 0
513 245 0
514 220 0
515 219 0
516 218 0
517 200 0
518 246 0
519 216 0
520 215 0
521 214 0
522 196 0
523 247 0
524 212 0
525 211 0
526 210 0
527 192 0
528 234 0
529 208 0
530 207 0
531 206 0
532 188 0
533 242 0
534 240 0
535 225 0
536 205 0
537 203 0
538 249 0
539 250 0
540 221 0
541 201 0
542 199 0
543 251 0
544 252 0
545 217 0
546 197 0
547 195 0
548 235 0
549 233 0
550 213 0
551 193 0
552 191 0
553 232 0
554 230 0
555 209 0
556 189 0
557 187 0
378 6 0
-378 -6 0
6 0
379 7 0
-379 -7 0
7 635 264 0
-7 -635 0
-7 -264 0
380 8 0
-380 -8 0
8 635 265 0
-8 -635 0
-8 -265 0
381 9 0
-381 -9 0
9 635 266 0
-9 -635 0
-9 -266 0
382 10 0
-382 -10 0
10 635 267 0
-10 -635 0
-10 -267 0
383 11 0
-383 -11 0
11 0
384 12 0
-384 -12 0
12 640 269 0
-12 -640 0
-12 -269 0
385 13 0
-385 -13 0
13 640 270 0
-13 -640 0
-13 -270 0
386 14 0
-386 -14 0
14 640 271 0
-14 -640 0
-14 -271 0
387 15 0
-387 -15 0
15 640 272 0
-15 -640 0
-15 -272 0
388 16 0
-388 -16 0
16 0
389 17 0
-389 -17 0
17 0
390 18 0
-390 -18 0
18 0
391 19 0
-391 -19 0
19 0
392 20 0
-392 -20 0
20 0
393 21 0
-393 -21 0
21 0
394 22 0
-394 -22 0
22 0
395 23 0
-395 -23 0
23 0
396 24 0
-396 -24 0
24 0
397 25 0
-397 -25 0
25 0
398 26 0
-398 -26 0
26 0
399 27 0
-399 -27 0
27 0
400 28 0
-400 -28 0
28 0
401 29 0
-401 -29 0
29 0
402 30 0
-402 -30 0
30 0
403 31 0
-403 -31 0
31 0
404 32 0
-404 -32 0
32 0
405 33 0
-405 -33 0
33 0
406 34 0
-406 -34 0
34 0
407 35 0
-407 -35 0
35 0
408 36 0
-408 -36 0
36 0
409 37 0
-409 -37 0
37 0
410 38 0
-410 -38 0
38 0
411 39 0
-411 -39 0
39 0
412 40 0
-412 -40 0
40 0
413 41 0
-413 -41 0
41 0
414 42 0
-414 -42 0
42 0
415 43 0
-415 -43 0
43 0
416 44 0
-416 -44 0
44 0
417 45 0
-417 -45 0
45 0
418 46 0
-418 -46 0
46 0
419 47 0
-419 -47 0
47 0
420 48 0
-420 -48 0
48 0
421 49 0
-421 -49 0
49 0
422 50 0
-422 -50 0
50 0
423 51 0
-423 -51 0
51 0
424 52 0
-424 -52 0
52 0
425 53 0
-425 -53 0
53 0
426 54 0
-426 -54 0
54 0
427 55 0
-427 -55 0
55 0
428 56 0
-428 -56 0
56 0
429 57 0
-429 -57 0
57 0
430 58 0
-430 -58 0
58 0
431 59 0
-431 -59 0
59 0
432 60 0
-432 -60 0
60 0
433 61 0
-433 -61 0
61 0
434 62 0
-434 -62 0
62 0
435 63 0
-435 -63 0
63 0
436 64 0
-436 -64 0
64 0
437 65 0
-437 -65 0
65 0
438 66 0
-438 -66 0
66 386 439 0
-66 -386 0
-66 -439 0
439 67 0
-439 -67 0
67 437 322 0
-67 -437 0
-67 -322 0
440 68 0
-440 -68 0
641 386 441 0
-641 -386 0
-641 -441 0
642 385 443 0
-642 -385 0
-642 -443 0
643 412 297 0
-643 -412 0
-643 -297 0
441 69 0
-441 -69 0
69 436 321 0
-69 -436 0
-69 -321 0
442 70 0
-442 -70 0
70 386 443 0
-70 -386 0
-70 -443 0
443 71 0
-443 -71 0
71 432 317 0
-71 -432 0
-71 -317 0
444 72 0
-444 -72 0
644 386 445 0
-644 -386 0
-644 -445 0
645 407 292 0
-645 -407 0
-645 -292 0
445 73 0
-445 -73 0
73 431 316 0
-73 -431 0
-73 -316 0
446 74 0
-446 -74 0
74 386 447 0
-74 -386 0
-74 -447 0
447 75 0
-447 -75 0
75 427 312 0
-75 -427 0
-75 -312 0
448 76 0
-448 -76 0
646 386 449 0
-646 -386 0
-646 -449 0
647 402 287 0
-647 -402 0
-647 -287 0
449 77 0
-449 -77 0
77 426 311 0
-77 -426 0
-77 -311 0
450 78 0
-450 -78 0
78 386 451 0
-78 -386 0
-78 -451 0
451 79 0
-451 -79 0
79 422 307 0
-79 -422 0
-79 -307 0
452 80 0
-452 -80 0
648 386 453 0
-648 -386 0
-648 -453 0
649 397 282 0
-649 -397 0
-649 -282 0
453 81 0
-453 -81 0
81 421 306 0
-81 -421 0
-81 -306 0
454 82 0
-454 -82 0
82 386 455 0
-82 -386 0
-82 -455 0
455 83 0
-455 -83 0
83 417 302 0
-83 -417 0
-83 -302 0
456 84 0
-456 -84 0
650 386 457 0
-650 -386 0
-650 -457 0
651 392 277 0
-651 -392 0
-651 -277 0
457 85 0
-457 -85 0
85 416 301 0
-85 -416 0
-85 -301 0
458 86 0
-458 -86 0
86 387 459 0
-86 -387 0
-86 -459 0
459 87 0
-459 -87 0
87 433 318 0
-87 -433 0
-87 -318 0
460 88 0
-460 -88 0
88 387 461 0
-88 -387 0
-88 -461 0
461 89 0
-461 -89 0
89 428 313 0
-89 -428 0
-89 -313 0
462 90 0
-462 -90 0
90 387 463 0
-90 -387 0
-90 -463 0
463 91 0
-463 -91 0
91 423 308 0
-91 -423 0
-91 -308 0
464 92 0
-464 -92 0
92 387 465 0
-92 -387 0
-92 -465 0
465 93 0
-465 -93 0
93 418 303 0
-93 -418 0
-93 -303 0
466 94 0
-466 -94 0
94 387 467 0
-94 -387 0
-94 -467 0
467 95 0
-467 -95 0
95 413 298 0
-95 -413 0
-95 -298 0
468 96 0
-468 -96 0
96 385 439 0
-96 -385 0
-96 -439 0
469 97 0
-469 -97 0
97 385 441 0
-97 -385 0
-97 -441 0
470 98 0
-470 -98 0
98 385 471 0
-98 -385 0
-98 -471 0
471 99 0
-471 -99 0
99 435 320 0
-99 -435 0
-99 -320 0
472 100 0
-472 -100 0
100 385 473 0
-100 -385 0
-100 -473 0
473 101 0
-473 -101 0
101 434 319 0
-101 -434 0
-101 -319 0
474 102 0
-474 -102 0
102 385 459 0
-102 -385 0
-102 -459 0
475 103 0
-475 -103 0
652 385 445 0
-652 -385 0
-652 -445 0
653 411 296 0
-653 -411 0
-653 -296 0
476 104 0
-476 -104 0
654 385 477 0
-654 -385 0
-654 -477 0
655 410 295 0
-655 -410 0
-655 -295 0
477 105 0
-477 -105 0
105 430 315 0
-105 -430 0
-105 -315 0
478 106 0
-478 -106 0
656 385 479 0
-656 -385 0
-656 -479 0
657 409 294 0
-657 -409 0
-657 -294 0
479 107 0
-479 -107 0
107 429 314 0
-107 -429 0
-107 -314 0
480 108 0
-480 -108 0
658 385 461 0
-658 -385 0
-658 -461 0
659 408 293 0
-659 -408 0
-659 -293 0
481 109 0
-481 -109 0
109 384 455 0
-109 -384 0
-109 -455 0
482 110 0
-482 -110 0
110 384 457 0
-110 -384 0
-110 -457 0
483 111 0
-483 -111 0
111 384 484 0
-111 -384 0
-111 -484 0
484 112 0
-484 -112 0
112 415 300 0
-112 -415 0
-112 -300 0
485 113 0
-485 -113 0
113 384 486 0
-113 -384 0
-113 -486 0
486 114 0
-486 -114 0
114 414 299 0
-114 -414 0
-114 -299 0
487 115 0
-487 -115 0
115 384 467 0
-115 -384 0
-115 -467 0
488 116 0
-488 -116 0
116 388 273 0
-116 -388 0
-116 -273 0
489 117 0
-489 -117 0
117 389 274 0
-117 -389 0
-117 -274 0
490 118 0
-490 -118 0
118 390 275 0
-118 -390 0
-118 -275 0
491 119 0
-491 -119 0
119 391 276 0
-119 -391 0
-119 -276 0
492 120 0
-492 -120 0
120 393 278 0
-120 -393 0
-120 -278 0
493 121 0
-493 -121 0
121 394 279 0
-121 -394 0
-121 -279 0
494 122 0
-494 -122 0
122 395 280 0
-122 -395 0
-122 -280 0
495 123 0
-495 -123 0
123 396 281 0
-123 -396 0
-123 -281 0
496 124 0
-496 -124 0
124 398 283 0
-124 -398 0
-124 -283 0
497 125 0
-497 -125 0
125 399 284 0
-125 -399 0
-125 -284 0
498 126 0
-498 -126 0
126 400 285 0
-126 -400 0
-126 -285 0
499 127 0
-499 -127 0
127 401 286 0
-127 -401 0
-127 -286 0
500 128 0
-500 -128 0
128 403 288 0
-128 -403 0
-128 -288 0
501 129 0
-501 -129 0
129 404 289 0
-129 -404 0
-129 -289 0
502 130 0
-502 -130 0
130 405 290 0
-130 -405 0
-130 -290 0
503 131 0
-503 -131 0
131 406 291 0
-131 -406 0
-131 -291 0
504 132 0
-504 -132 0
132 419 304 0
-132 -419 0
-132 -304 0
505 133 0
-505 -133 0
133 420 305 0
-133 -420 0
-133 -305 0
506 134 0
-506 -134 0
134 424 309 0
-134 -424 0
-134 -309 0
507 135 0
-507 -135 0
135 425 310 0
-135 -425 0
-135 -310 0
508 136 0
-508 -136 0
136 0
509 137 0
-509 -137 0
137 0
510 138 0
-510 -138 0
138 0
511 139 0
-511 -139 0
139 0
512 140 0
-512 -140 0
140 0
513 141 0
-513 -141 0
141 0
514 142 0
-514 -142 0
142 0
515 143 0
-515 -143 0
143 0
516 144 0
-516 -144 0
144 0
517 145 0
-517 -145 0
145 0
518 146 0
-518 -146 0
146 0
519 147 0
-519 -147 0
147 0
520 148 0
-520 -148 0
148 0
521 149 0
-521 -149 0
149 0
522 150 0
-522 -150 0
150 0
523 151 0
-523 -151 0
151 0
524 152 0
-524 -152 0
152 0
525 153 0
-525 -153 0
153 0
526 154 0
-526 -154 0
154 0
527 155 0
-527 -155 0
155 0
528 156 0
-528 -156 0
156 0
529 157 0
-529 -157 0
157 0
530 158 0
-530 -158 0
158 0
531 159 0
-531 -159 0
159 0
532 160 0
-532 -160 0
160 0
533 161 0
-533 -161 0
161 0
534 162 0
-534 -162 0
162 0
535 163 0
-535 -163 0
163 0
536 164 0
-536 -164 0
164 0
537 165 0
-537 -165 0
165 0
538 166 0
-538 -166 0
166 0
539 167 0
-539 -167 0
167 0
540 168 0
-540 -168 0
168 0
541 169 0
-541 -169 0
169 0
542 170 0
-542 -170 0
170 0
543 171 0
-543 -171 0
171 0
544 172 0
-544 -172 0
172 0
545 173 0
-545 -173 0
173 0
546 174 0
-546 -174 0
174 0
547 175 0
-547 -175 0
175 0
548 176 0
-548 -176 0
176 0
549 177 0
-549 -177 0
177 0
550 178 0
-550 -178 0
178 0
551 179 0
-551 -179 0
179 0
552 180 0
-552 -180 0
180 0
553 181 0
-553 -181 0
181 0
554 182 0
-554 -182 0
182 0
555 183 0
-555 -183 0
183 0
556 184 0
-556 -184 0
184 0
557 185 0
-557 -185 0
185 0
558 186 0
-558 -186 0
186 381 559 0
-186 -381 0
-186 -559 0
559 187 0
-559 -187 0
187 557 372 0
-187 -557 0
-187 -372 0
560 188 0
-560 -188 0
660 381 561 0
-660 -381 0
-660 -561 0
661 380 563 0
-661 -380 0
-661 -563 0
662 532 347 0
-662 -532 0
-662 -347 0
561 189 0
-561 -189 0
189 556 371 0
-189 -556 0
-189 -371 0
562 190 0
-562 -190 0
190 381 563 0
-190 -381 0
-190 -563 0
563 191 0
-563 -191 0
191 552 367 0
-191 -552 0
-191 -367 0
564 192 0
-564 -192 0
663 381 565 0
-663 -381 0
-663 -565 0
664 527 342 0
-664 -527 0
-664 -342 0
565 193 0
-565 -193 0
193 551 366 0
-193 -551 0
-193 -366 0
566 194 0
-566 -194 0
194 381 567 0
-194 -381 0
-194 -567 0
567 195 0
-567 -195 0
195 547 362 0
-195 -547 0
-195 -362 0
568 196 0
-568 -196 0
665 381 569 0
-665 -381 0
-665 -569 0
666 522 337 0
-666 -522 0
-666 -337 0
569 197 0
-569 -197 0
197 546 361 0
-197 -546 0
-197 -361 0
570 198 0
-570 -198 0
198 381 571 0
-198 -381 0
-198 -571 0
571 199 0
-571 -199 0
199 542 357 0
-199 -542 0
-199 -357 0
572 200 0
-572 -200 0
667 381 573 0
-667 -381 0
-667 -573 0
668 517 332 0
-668 -517 0
-668 -332 0
573 201 0
-573 -201 0
201 541 356 0
-201 -541 0
-201 -356 0
574 202 0
-574 -202 0
202 381 575 0
-202 -381 0
-202 -575 0
575 203 0
-575 -203 0
203 537 352 0
-203 -537 0
-203 -352 0
576 204 0
-576 -204 0
669 381 577 0
-669 -381 0
-669 -577 0
670 512 327 0
-670 -512 0
-670 -327 0
577 205 0
-577 -205 0
205 536 351 0
-205 -536 0
-205 -351 0
578 206 0
-578 -206 0
671 382 559 0
-671 -382 0
-671 -559 0
672 380 565 0
-672 -380 0
-672 -565 0
673 531 346 0
-673 -531 0
-673 -346 0
579 207 0
-579 -207 0
674 382 561 0
-674 -382 0
-674 -561 0
675 380 585 0
-675 -380 0
-675 -585 0
676 530 345 0
-676 -530 0
-676 -345 0
580 208 0
-580 -208 0
677 382 581 0
-677 -382 0
-677 -581 0
678 380 605 0
-678 -380 0
-678 -605 0
679 529 344 0
-679 -529 0
-679 -344 0
581 209 0
-581 -209 0
209 555 370 0
-209 -555 0
-209 -370 0
582 210 0
-582 -210 0
680 382 563 0
-680 -382 0
-680 -563 0
681 526 341 0
-681 -526 0
-681 -341 0
583 211 0
-583 -211 0
682 382 565 0
-682 -382 0
-682 -565 0
683 525 340 0
-683 -525 0
-683 -340 0
584 212 0
-584 -212 0
684 382 585 0
-684 -382 0
-684 -585 0
685 524 339 0
-685 -524 0
-685 -339 0
585 213 0
-585 -213 0
213 550 365 0
-213 -550 0
-213 -365 0
586 214 0
-586 -214 0
686 382 567 0
-686 -382 0
-686 -567 0
687 521 336 0
-687 -521 0
-687 -336 0
587 215 0
-587 -215 0
688 382 569 0
-688 -382 0
-688 -569 0
689 520 335 0
-689 -520 0
-689 -335 0
588 216 0
-588 -216 0
690 382 589 0
-690 -382 0
-690 -589 0
691 519 334 0
-691 -519 0
-691 -334 0
589 217 0
-589 -217 0
217 545 360 0
-217 -545 0
-217 -360 0
590 218 0
-590 -218 0
692 382 571 0
-692 -382 0
-692 -571 0
693 516 331 0
-693 -516 0
-693 -331 0
591 219 0
-591 -219 0
694 382 573 0
-694 -382 0
-694 -573 0
695 515 330 0
-695 -515 0
-695 -330 0
592 220 0
-592 -220 0
696 382 593 0
-696 -382 0
-696 -593 0
697 514 329 0
-697 -514 0
-697 -329 0
593 221 0
-593 -221 0
221 540 355 0
-221 -540 0
-221 -355 0
594 222 0
-594 -222 0
698 382 575 0
-698 -382 0
-698 -575 0
699 511 326 0
-699 -511 0
-699 -326 0
595 223 0
-595 -223 0
700 382 577 0
-700 -382 0
-700 -577 0
701 510 325 0
-701 -510 0
-701 -325 0
596 224 0
-596 -224 0
702 382 597 0
-702 -382 0
-702 -597 0
703 509 324 0
-703 -509 0
-703 -324 0
597 225 0
-597 -225 0
225 535 350 0
-225 -535 0
-225 -350 0
598 226 0
-598 -226 0
226 380 559 0
-226 -380 0
-226 -559 0
599 227 0
-599 -227 0
227 380 561 0
-227 -380 0
-227 -561 0
600 228 0
-600 -228 0
228 380 581 0
-228 -380 0
-228 -581 0
601 229 0
-601 -229 0
229 380 602 0
-229 -380 0
-229 -602 0
602 230 0
-602 -230 0
230 554 369 0
-230 -554 0
-230 -369 0
603 231 0
-603 -231 0
231 380 604 0
-231 -380 0
-231 -604 0
604 232 0
-604 -232 0
232 553 368 0
-232 -553 0
-232 -368 0
605 233 0
-605 -233 0
233 549 364 0
-233 -549 0
-233 -364 0
606 234 0
-606 -234 0
704 380 607 0
-704 -380 0
-704 -607 0
705 528 343 0
-705 -528 0
-705 -343 0
607 235 0
-607 -235 0
235 548 363 0
-235 -548 0
-235 -363 0
608 236 0
-608 -236 0
236 379 575 0
-236 -379 0
-236 -575 0
609 237 0
-609 -237 0
237 379 577 0
-237 -379 0
-237 -577 0
610 238 0
-610 -238 0
238 379 597 0
-238 -379 0
-238 -597 0
611 239 0
-611 -239 0
239 379 612 0
-239 -379 0
-239 -612 0
612 240 0
-612 -240 0
240 534 349 0
-240 -534 0
-240 -349 0
613 241 0
-613 -241 0
241 379 614 0
-241 -379 0
-241 -614 0
614 242 0
-614 -242 0
242 533 348 0
-242 -533 0
-242 -348 0
706 558 438 0
-706 -558 0
-706 -438 0
707 562 442 0
-707 -562 0
-707 -442 0
708 566 446 0
-708 -566 0
-708 -446 0
709 570 450 0
-709 -570 0
-709 -450 0
710 574 454 0
-710 -574 0
-710 -454 0
711 598 468 0
-711 -598 0
-711 -468 0
712 599 469 0
-712 -599 0
-712 -469 0
713 600 470 0
-713 -600 0
-713 -470 0
714 601 472 0
-714 -601 0
-714 -472 0
715 603 474 0
-715 -603 0
-715 -474 0
716 608 481 0
-716 -608 0
-716 -481 0
717 609 482 0
-717 -609 0
-717 -482 0
718 610 483 0
-718 -610 0
-718 -483 0
719 611 485 0
-719 -611 0
-719 -485 0
720 613 487 0
-720 -613 0
-720 -487 0
721 616 488 0
-721 -616 0
-721 -488 0
722 596 489 0
-722 -596 0
-722 -489 0
723 595 490 0
-723 -595 0
-723 -490 0
724 594 491 0
-724 -594 0
-724 -491 0
725 576 456 0
-725 -576 0
-725 -456 0
726 617 492 0
-726 -617 0
-726 -492 0
727 592 493 0
-727 -592 0
-727 -493 0
728 591 494 0
-728 -591 0
-728 -494 0
729 590 495 0
-729 -590 0
-729 -495 0
730 572 452 0
-730 -572 0
-730 -452 0
731 618 496 0
-731 -618 0
-731 -496 0
732 588 497 0
-732 -588 0
-732 -497 0
733 587 498 0
-733 -587 0
-733 -498 0
734 586 499 0
-734 -586 0
-734 -499 0
735 568 448 0
-735 -568 0
-735 -448 0
736 619 500 0
-736 -619 0
-736 -500 0
737 584 501 0
-737 -584 0
-737 -501 0
738 583 502 0
-738 -583 0
-738 -502 0
739 582 503 0
-739 -582 0
-739 -503 0
740 564 444 0
-740 -564 0
-740 -444 0
741 606 480 0
-741 -606 0
-741 -480 0
742 580 478 0
-742 -580 0
-742 -478 0
743 579 476 0
-743 -579 0
-743 -476 0
744 578 475 0
-744 -578 0
-744 -475 0
745 560 440 0
-745 -560 0
-745 -440 0
616 244 0
-616 -244 0
244 508 323 0
-244 -508 0
-244 -323 0
617 245 0
-617 -245 0
245 513 328 0
-245 -513 0
-245 -328 0
618 246 0
-618 -246 0
246 518 333 0
-246 -518 0
-246 -333 0
619 247 0
-619 -247 0
247 523 338 0
-247 -523 0
-247 -338 0
746 614 467 0
-746 -614 0
-746 -467 0
747 612 486 0
-747 -612 0
-747 -486 0
748 597 484 0
-748 -597 0
-748 -484 0
749 577 457 0
-749 -577 0
-749 -457 0
750 575 455 0
-750 -575 0
-750 -455 0
751 621 465 0
-751 -621 0
-751 -465 0
752 622 504 0
-752 -622 0
-752 -504 0
753 593 505 0
-753 -593 0
-753 -505 0
754 573 453 0
-754 -573 0
-754 -453 0
755 571 451 0
-755 -571 0
-755 -451 0
756 623 463 0
-756 -623 0
-756 -463 0
757 624 506 0
-757 -624 0
-757 -506 0
758 589 507 0
-758 -589 0
-758 -507 0
759 569 449 0
-759 -569 0
-759 -449 0
760 567 447 0
-760 -567 0
-760 -447 0
761 607 461 0
-761 -607 0
-761 -461 0
762 605 479 0
-762 -605 0
-762 -479 0
763 585 477 0
-763 -585 0
-763 -477 0
764 565 445 0
-764 -565 0
-764 -445 0
765 563 443 0
-765 -563 0
-765 -443 0
766 604 459 0
-766 -604 0
-766 -459 0
767 602 473 0
-767 -602 0
-767 -473 0
768 581 471 0
-768 -581 0
-768 -471 0
769 561 441 0
-769 -561 0
-769 -441 0
770 559 439 0
-770 -559 0
-770 -439 0
621 249 0
-621 -249 0
249 538 353 0
-249 -538 0
-249 -353 0
622 250 0
-622 -250 0
250 539 354 0
-250 -539 0
-250 -354 0
623 251 0
-623 -251 0
251 543 358 0
-251 -543 0
-251 -358 0
624 252 0
-624 -252 0
252 544 359 0
-252 -544 0
-252 -359 0
625 253 0
-625 -253 0
771 379 0
-771 -379 0
772 380 0
-772 -380 0
773 381 0
-773 -381 0
774 382 0
-774 -382 0
775 379 380 0
-775 -379 0
-775 -380 0
776 379 381 0
-776 -379 0
-776 -381 0
777 379 382 0
-777 -379 0
-777 -382 0
778 380 381 0
-778 -380 0
-778 -381 0
779 380 382 0
-779 -380 0
-779 -382 0
780 381 382 0
-780 -381 0
-780 -382 0
255 625 254 0
-255 -625 0
-255 -254 0
628 256 0
-628 -256 0
781 384 0
-781 -384 0
782 385 0
-782 -385 0
783 386 0
-783 -386 0
784 387 0
-784 -387 0
785 384 385 0
-785 -384 0
-785 -385 0
786 384 386 0
-786 -384 0
-786 -386 0
787 384 387 0
-787 -384 0
-787 -387 0
788 385 386 0
-788 -385 0
-788 -386 0
789 385 387 0
-789 -385 0
-789 -387 0
790 386 387 0
-790 -386 0
-790 -387 0
258 628 257 0
-258 -628 0
-258 -257 0
259 0
260 0
261 0
262 0
635 263 0
-635 -263 0
263 378 0
-263 -378 0
264 7 0
-264 -7 0
265 8 0
-265 -8 0
266 9 0
-266 -9 0
267 10 0
-267 -10 0
640 268 0
-640 -268 0
268 383 0
-268 -383 0
269 12 0
-269 -12 0
270 13 0
-270 -13 0
271 14 0
-271 -14 0
272 15 0
-272 -15 0
273 116 0
-273 -116 0
274 117 0
-274 -117 0
275 118 0
-275 -118 0
276 119 0
-276 -119 0
277 84 0
-277 -84 0
278 120 0
-278 -120 0
279 121 0
-279 -121 0
280 122 0
-280 -122 0
281 123 0
-281 -123 0
282 80 0
-282 -80 0
283 124 0
-283 -124 0
284 125 0
-284 -125 0
285 126 0
-285 -126 0
286 127 0
-286 -127 0
287 76 0
-287 -76 0
288 128 0
-288 -128 0
289 129 0
-289 -129 0
290 130 0
-290 -130 0
291 131 0
-291 -131 0
292 72 0
-292 -72 0
293 108 0
-293 -108 0
294 106 0
-294 -106 0
295 104 0
-295 -104 0
296 103 0
-296 -103 0
297 68 0
-297 -68 0
298 95 0
-298 -95 0
299 114 0
-299 -114 0
300 112 0
-300 -112 0
301 85 0
-301 -85 0
302 83 0
-302 -83 0
303 93 0
-303 -93 0
304 132 0
-304 -132 0
305 133 0
-305 -133 0
306 81 0
-306 -81 0
307 79 0
-307 -79 0
308 91 0
-308 -91 0
309 134 0
-309 -134 0
310 135 0
-310 -135 0
311 77 0
-311 -77 0
312 75 0
-312 -75 0
313 89 0
-313 -89 0
314 107 0
-314 -107 0
315 105 0
-315 -105 0
316 73 0
-316 -73 0
317 71 0
-317 -71 0
318 87 0
-318 -87 0
319 101 0
-319 -101 0
320 99 0
-320 -99 0
321 69 0
-321 -69 0
322 67 0
-322 -67 0
323 244 0
-323 -244 0
324 224 0
-324 -224 0
325 223 0
-325 -223 0
326 222 0
-326 -222 0
327 204 0
-327 -204 0
328 245 0
-328 -245 0
329 220 0
-329 -220 0
330 219 0
-330 -219 0
331 218 0
-331 -218 0
332 200 0
-332 -200 0
333 246 0
-333 -246 0
334 216 0
-334 -216 0
335 215 0
-335 -215 0
336 214 0
-336 -214 0
337 196 0
-337 -196 0
338 247 0
-338 -247 0
339 212 0
-339 -212 0
340 211 0
-340 -211 0
341 210 0
-341 -210 0
342 192 0
-342 -192 0
343 234 0
-343 -234 0
344 208 0
-344 -208 0
345 207 0
-345 -207 0
346 206 0
-346 -206 0
347 188 0
-347 -188 0
348 242 0
-348 -242 0
349 240 0
-349 -240 0
350 225 0
-350 -225 0
351 205 0
-351 -205 0
352 203 0
-352 -203 0
353 249 0
-353 -249 0
354 250 0
-354 -250 0
355 221 0
-355 -221 0
356 201 0
-356 -201 0
357 199 0
-357 -199 0
358 251 0
-358 -251 0
359 252 0
-359 -252 0
360 217 0
-360 -217 0
361 197 0
-361 -197 0
362 195 0
-362 -195 0
363 235 0
-363 -235 0
364 233 0
-364 -233 0
365 213 0
-365 -213 0
366 193 0
-366 -193 0
367 191 0
-367 -191 0
368 232 0
-368 -232 0
369 230 0
-369 -230 0
370 209 0
-370 -209 0
371 189 0
-371 -189 0
372 187 0
-372 -187 0
-1 0
-2 0
-3 0
-4 0
-5 0
-68 641 642 643 0
68 -641 0
68 -642 0
68 -643 0
-72 644 645 0
72 -644 0
72 -645 0
-76 646 647 0
76 -646 0
76 -647 0
-80 648 649 0
80 -648 0
80 -649 0
-84 650 651 0
84 -650 0
84 -651 0
-103 652 653 0
103 -652 0
103 -653 0
-104 654 655 0
104 -654 0
104 -655 0
-106 656 657 0
106 -656 0
106 -657 0
-108 658 659 0
108 -658 0
108 -659 0
-188 660 661 662 0
188 -660 0
188 -661 0
188 -662 0
-192 663 664 0
192 -663 0
192 -664 0
-196 665 666 0
196 -665 0
196 -666 0
-200 667 668 0
200 -667 0
200 -668 0
-204 669 670 0
204 -669 0
204 -670 0
-206 671 672 673 0
206 -671 0
206 -672 0
206 -673 0
-207 674 675 676 0
207 -674 0
207 -675 0
207 -676 0
-208 677 678 679 0
208 -677 0
208 -678 0
208 -679 0
-210 680 681 0
210 -680 0
210 -681 0
-211 682 683 0
211 -682 0
211 -683 0
-212 684 685 0
212 -684 0
212 -685 0
-214 686 687 0
214 -686 0
214 -687 0
-215 688 689 0
215 -688 0
215 -689 0
-216 690 691 0
216 -690 0
216 -691 0
-218 692 693 0
218 -692 0
218 -693 0
-219 694 695 0
219 -694 0
219 -695 0
-220 696 697 0
220 -696 0
220 -697 0
-222 698 699 0
222 -698 0
222 -699 0
-223 700 701 0
223 -700 0
223 -701 0
-224 702 703 0
224 -702 0
224 -703 0
-234 704 705 0
234 -704 0
234 -705 0
-243 706 707 708 709 710 711 712 713 714 715 716 717 718 719 720 721 722 723 724 725 726 727 728 729 730 731 732 733 734 735 736 737 738 739 740 741 742 743 744 745 0
243 -706 0
243 -707 0
243 -708 0
243 -709 0
243 -710 0
243 -711 0
243 -712 0
243 -713 0
243 -714 0
243 -715 0
243 -716 0
243 -717 0
243 -718 0
243 -719 0
243 -720 0
243 -721 0
243 -722 0
243 -723 0
243 -724 0
243 -725 0
243 -726 0
243 -727 0
243 -728 0
243 -729 0
243 -730 0
243 -731 0
243 -732 0
243 -733 0
243 -734 0
243 -735 0
243 -736 0
243 -737 0
243 -738 0
243 -739 0
243 -740 0
243 -741 0
243 -742 0
243 -743 0
243 -744 0
243 -745 0
-248 746 747 748 749 750 751 752 753 754 755 756 757 758 759 760 761 762 763 764 765 766 767 768 769 770 0
248 -746 0
248 -747 0
248 -748 0
248 -749 0
248 -750 0
248 -751 0
248 -752 0
248 -753 0
248 -754 0
248 -755 0
248 -756 0
248 -757 0
248 -758 0
248 -759 0
248 -760 0
248 -761 0
248 -762 0
248 -763 0
248 -764 0
248 -765 0
248 -766 0
248 -767 0
248 -768 0
248 -769 0
248 -770 0
-253 771 772 773 774 0
253 -771 0
253 -772 0
253 -773 0
253 -774 0
-254 775 776 777 778 779 780 0
254 -775 0
254 -776 0
254 -777 0
254 -778 0
254 -779 0
254 -780 0
-256 781 782 783 784 0
256 -781 0
256 -782 0
256 -783 0
256 -784 0
-257 785 786 787 788 789 790 0
257 -785 0
257 -786 0
257 -787 0
257 -788 0
257 -789 0
257 -790 0
-373 0
-374 0
-375 0
-376 0
-377 0
-615 0
-620 0
-626 0
-627 0
-629 0
-630 0
-631 0
-632 0
-633 0
-634 0
-636 0
-637 0
-638 0
-639 0
